(set-logic HORN)
(declare-fun state (Int Int Bool Int (Array Int Int) Int Int (Array Int Int) Bool Int (Array Int Int) (Array Int Int) Int Int Bool Bool Bool Bool Int) Bool)
(assert (forall ((|.x.14| Int) (|main@%.1.i_0_0| Int) (|main@%assume.flag.0_0_0| Bool) (|main@%_7_0_0| Int) (|main@%shadow.mem1.2_0_0| (Array Int Int)) (|main@%_3_0_0| Int) (|main@%_6_0_0| Int) (|main@%shadow.mem.1_0_0| (Array Int Int)) (|main@%_5_0_0| Bool) (|main@%.0.i1_0_0| Int) (|main@%shadow.mem1.0_0_0| (Array Int Int)) (|main@%shadow.mem.0_0_0| (Array Int Int)) (|@nondet_char_0_0| Int) (|@nondet_int_0_0| Int) (|main@_bb2_0| Bool) (|main@_bb_0_0| Bool) (|tuple(main@_bb4_0, main@_bb6_0)| Bool) (|tuple(main@_bb_0, main@_bb3_0)| Bool) (|main@%_10_0| Int) (|.x.20| Int) (|.x.21| Int) (|main@%.0.i1_2| Int) (|main@%_3_1| Int) (|.x.15| Int) (|.x.16| Int) (|.x.17| Bool) (|.x.18| (Array Int Int)) (|.x.19| (Array Int Int)) (|main@%_5_1| Bool) (|main@%shadow.mem1.0_2| (Array Int Int)) (|main@%shadow.mem.0_2| (Array Int Int)) (|main@%_6_1| Int) (|main@%_7_1| Int) (|.xtv.1| Bool) (|.xtv.2| Bool) (|.xtv.3| Bool) (|.xtv.4| Bool) (|.xtv.5| Int)) (=> (= .x.14 0) (state |.x.14| |main@%.1.i_0_0| |main@%assume.flag.0_0_0| |main@%_7_0_0| |main@%shadow.mem1.2_0_0| |main@%_3_0_0| |main@%_6_0_0| |main@%shadow.mem.1_0_0| |main@%_5_0_0| |main@%.0.i1_0_0| |main@%shadow.mem1.0_0_0| |main@%shadow.mem.0_0_0| |@nondet_char_0_0| |@nondet_int_0_0| |main@_bb2_0| |main@_bb_0_0| |tuple(main@_bb4_0, main@_bb6_0)| |tuple(main@_bb_0, main@_bb3_0)| |main@%_10_0|))))
(assert (forall ((|.x.14| Int) (|main@%.1.i_0_0| Int) (|main@%assume.flag.0_0_0| Bool) (|main@%_7_0_0| Int) (|main@%shadow.mem1.2_0_0| (Array Int Int)) (|main@%_3_0_0| Int) (|main@%_6_0_0| Int) (|main@%shadow.mem.1_0_0| (Array Int Int)) (|main@%_5_0_0| Bool) (|main@%.0.i1_0_0| Int) (|main@%shadow.mem1.0_0_0| (Array Int Int)) (|main@%shadow.mem.0_0_0| (Array Int Int)) (|@nondet_char_0_0| Int) (|@nondet_int_0_0| Int) (|main@_bb2_0| Bool) (|main@_bb_0_0| Bool) (|tuple(main@_bb4_0, main@_bb6_0)| Bool) (|tuple(main@_bb_0, main@_bb3_0)| Bool) (|main@%_10_0| Int) (|.x.20| Int) (|.x.21| Int) (|main@%.0.i1_2| Int) (|main@%_3_1| Int) (|.x.15| Int) (|.x.16| Int) (|.x.17| Bool) (|.x.18| (Array Int Int)) (|.x.19| (Array Int Int)) (|main@%_5_1| Bool) (|main@%shadow.mem1.0_2| (Array Int Int)) (|main@%shadow.mem.0_2| (Array Int Int)) (|main@%_6_1| Int) (|main@%_7_1| Int) (|.xtv.1| Bool) (|.xtv.2| Bool) (|.xtv.3| Bool) (|.xtv.4| Bool) (|.xtv.5| Int)) (=> (and (state |.x.14| |main@%.1.i_0_0| |main@%assume.flag.0_0_0| |main@%_7_0_0| |main@%shadow.mem1.2_0_0| |main@%_3_0_0| |main@%_6_0_0| |main@%shadow.mem.1_0_0| |main@%_5_0_0| |main@%.0.i1_0_0| |main@%shadow.mem1.0_0_0| |main@%shadow.mem.0_0_0| |@nondet_char_0_0| |@nondet_int_0_0| |main@_bb2_0| |main@_bb_0_0| |tuple(main@_bb4_0, main@_bb6_0)| |tuple(main@_bb_0, main@_bb3_0)| |main@%_10_0|) (let ((.def_39 (<= main@%_3_1 0))) (let ((.def_40 (not .def_39))) (let ((.def_43 (= .x.15 1))) (let ((.def_46 (= main@%.1.i_0_0 .x.16))) (let ((.def_49 (= main@%assume.flag.0_0_0 .x.17))) (let ((.def_52 (= main@%shadow.mem1.2_0_0 .x.18))) (let ((.def_55 (= main@%shadow.mem.1_0_0 .x.19))) (let ((.def_61 (= .x.16 0))) (let ((.def_64 (= .x.15 2))) (let ((.def_66 (= main@%.0.i1_0_0 main@%.0.i1_2))) (let ((.def_69 (= main@%shadow.mem1.0_0_0 main@%shadow.mem1.0_2))) (let ((.def_72 (= main@%shadow.mem.0_0_0 main@%shadow.mem.0_2))) (let ((.def_88 (store main@%shadow.mem1.0_0_0 (+ main@%_7_0_0 main@%.0.i1_0_0) 20))) (let ((.def_90 (not main@_bb2_0))) (let ((.def_95 (<= (+ main@%_3_0_0 (* (- 1) main@%.0.i1_0_0)) 1))) (let ((.def_101 (store main@%shadow.mem.0_0_0 (+ main@%_6_0_0 main@%.0.i1_0_0) main@%_10_0))) (let ((.def_103 (not |tuple(main@_bb_0, main@_bb3_0)|))) (let ((.def_109 (and main@_bb2_0 main@_bb_0_0))) (let ((.def_110 (or .def_90 .def_109))) (let ((.def_112 (or main@_bb_0_0 .def_103))) (let ((.def_115 (= main@%_10_0 10))) (let ((.def_117 (or .def_103 (not .def_115)))) (let ((.def_119 (not .def_109))) (let ((.def_120 (or .def_115 .def_119))) (let ((.def_122 (or main@_bb2_0 |tuple(main@_bb_0, main@_bb3_0)|))) (let ((.def_129 (<= main@%_7_0_0 0))) (let ((.def_130 (not .def_129))) (let ((.def_131 (or .def_90 .def_130))) (let ((.def_136 (or .def_90 (or .def_129 (not (<= (+ main@%_7_0_0 main@%.0.i1_0_0) 0)))))) (let ((.def_138 (<= main@%_6_0_0 0))) (let ((.def_139 (not .def_138))) (let ((.def_143 (or .def_138 (not (<= (+ main@%_6_0_0 main@%.0.i1_0_0) 0))))) (let ((.def_145 (= .x.14 1))) (let ((.def_147 (= main@%_7_0_0 main@%_7_1))) (let ((.def_149 (= main@%_3_0_0 main@%_3_1))) (let ((.def_151 (= main@%_6_0_0 main@%_6_1))) (let ((.def_153 (= main@%_5_0_0 main@%_5_1))) (let ((.def_188 (= (select main@%shadow.mem.1_0_0 (+ main@%.1.i_0_0 main@%_6_0_0)) 10))) (let ((.def_193 (or .def_129 (not (<= (+ main@%.1.i_0_0 main@%_7_0_0) 0))))) (let ((.def_196 (not |tuple(main@_bb4_0, main@_bb6_0)|))) (let ((.def_200 (= (select main@%shadow.mem1.2_0_0 (+ main@%.1.i_0_0 main@%_7_0_0)) 20))) (let ((.def_208 (not (<= main@%_3_0_0 main@%.1.i_0_0)))) (let ((.def_234 (or .def_138 (not (<= (+ main@%.1.i_0_0 main@%_6_0_0) 0))))) (let ((.def_236 (= .x.14 2))) (and (and (= @nondet_char_0_0 .x.20) (= @nondet_int_0_0 .x.21)) (or (or (or (or (and (or (and (= main@%.0.i1_2 0) (and (and (and (and (and .def_40 .def_43) .def_46) .def_49) .def_52) .def_55)) (and (and (and (and (and (and .def_39 (= .x.17 main@%_5_1)) .def_61) .def_64) .def_66) .def_69) .def_72)) (and (= .def_40 main@%_5_1) (and (= .x.14 0) (and (not (<= main@%_6_1 0)) (not (<= main@%_7_1 0)))))) (and (and (and (and (and (and (and (and (and (and (or (= main@%shadow.mem1.0_2 .def_88) .def_90) (and (not .def_95) (and (= (+ main@%.0.i1_0_0 (* (- 1) main@%.0.i1_2)) (- 1)) (and (= main@%shadow.mem.0_2 .def_101) (and (or .def_69 .def_103) (and (and (and (and (and (and .def_55 (and .def_52 (and .def_49 (and .def_43 .def_46)))) .def_110) .def_112) .def_117) .def_120) .def_122)))))) .def_131) .def_136) .def_139) .def_143) .def_145) .def_147) .def_149) .def_151) .def_153)) (and (= .x.19 .def_101) (and (= main@%_5_0_0 .x.17) (and (or .def_103 (= main@%shadow.mem1.0_0_0 .x.18)) (and (or .def_90 (= .x.18 .def_88)) (and .def_153 (and .def_151 (and .def_149 (and .def_147 (and .def_145 (and .def_143 (and .def_139 (and .def_136 (and .def_131 (and .def_95 (and .def_72 (and .def_69 (and .def_66 (and .def_64 (and .def_61 (and .def_122 (and .def_120 (and .def_117 (and .def_110 .def_112)))))))))))))))))))))))) (and (and (and (or .def_119 .def_188) (and (or .def_90 .def_193) (and (or main@_bb2_0 .def_103) (and (or main@_bb_0_0 .def_196) (and (or |tuple(main@_bb4_0, main@_bb6_0)| |tuple(main@_bb_0, main@_bb3_0)|) (and (or .def_103 .def_200) (and (or .def_196 (not .def_188)) (and (= (+ main@%.1.i_0_0 (* (- 1) .x.16)) (- 1)) (and (= .x.17 (and main@%assume.flag.0_0_0 .def_208)) (and .def_153 (and .def_151 (and .def_149 (and .def_147 (and .def_139 (and .def_131 (and .def_72 (and .def_69 (and .def_66 (and .def_64 (and .def_110 (and .def_52 .def_55))))))))))))))))))))) .def_234) .def_236)) (and (= .x.15 3) (and (not .def_200) (and .def_236 (and .def_234 (and .def_193 (and .def_188 (and .def_208 (and .def_153 (and .def_151 (and .def_149 (and .def_147 (and .def_139 (and .def_130 (and .def_72 (and .def_69 (and .def_66 (and .def_55 (and .def_52 (and .def_49 (and main@%assume.flag.0_0_0 .def_46))))))))))))))))))))))))))))))))))))))))))))))))))))))))))))))))))) (state |.x.15| |.x.16| |.x.17| |main@%_7_1| |.x.18| |main@%_3_1| |main@%_6_1| |.x.19| |main@%_5_1| |main@%.0.i1_2| |main@%shadow.mem1.0_2| |main@%shadow.mem.0_2| |.x.20| |.x.21| |.xtv.1| |.xtv.2| |.xtv.3| |.xtv.4| |.xtv.5|))))
(assert (forall ((|.x.14| Int) (|main@%.1.i_0_0| Int) (|main@%assume.flag.0_0_0| Bool) (|main@%_7_0_0| Int) (|main@%shadow.mem1.2_0_0| (Array Int Int)) (|main@%_3_0_0| Int) (|main@%_6_0_0| Int) (|main@%shadow.mem.1_0_0| (Array Int Int)) (|main@%_5_0_0| Bool) (|main@%.0.i1_0_0| Int) (|main@%shadow.mem1.0_0_0| (Array Int Int)) (|main@%shadow.mem.0_0_0| (Array Int Int)) (|@nondet_char_0_0| Int) (|@nondet_int_0_0| Int) (|main@_bb2_0| Bool) (|main@_bb_0_0| Bool) (|tuple(main@_bb4_0, main@_bb6_0)| Bool) (|tuple(main@_bb_0, main@_bb3_0)| Bool) (|main@%_10_0| Int) (|.x.20| Int) (|.x.21| Int) (|main@%.0.i1_2| Int) (|main@%_3_1| Int) (|.x.15| Int) (|.x.16| Int) (|.x.17| Bool) (|.x.18| (Array Int Int)) (|.x.19| (Array Int Int)) (|main@%_5_1| Bool) (|main@%shadow.mem1.0_2| (Array Int Int)) (|main@%shadow.mem.0_2| (Array Int Int)) (|main@%_6_1| Int) (|main@%_7_1| Int) (|.xtv.1| Bool) (|.xtv.2| Bool) (|.xtv.3| Bool) (|.xtv.4| Bool) (|.xtv.5| Int)) (=> (state |.x.14| |main@%.1.i_0_0| |main@%assume.flag.0_0_0| |main@%_7_0_0| |main@%shadow.mem1.2_0_0| |main@%_3_0_0| |main@%_6_0_0| |main@%shadow.mem.1_0_0| |main@%_5_0_0| |main@%.0.i1_0_0| |main@%shadow.mem1.0_0_0| |main@%shadow.mem.0_0_0| |@nondet_char_0_0| |@nondet_int_0_0| |main@_bb2_0| |main@_bb_0_0| |tuple(main@_bb4_0, main@_bb6_0)| |tuple(main@_bb_0, main@_bb3_0)| |main@%_10_0|) (not (= .x.14 3)))))
(check-sat)
